
Gurobi 13.0.2 (win64) logging started Thu Jul 23 18:40:05 2026

Set parameter LogFile to value "E:\codes\ExactEBRP\results\gf_gurobi_performance_recovery_round29\runs\stage4__high_imbalance_seed5202__c4_candidate__rep2__300s\external\native_logs\L1.1.0.0.1.1.0.0.1_terminal_mip.gurobi.log"
Gurobi Optimizer version 13.0.2 build v13.0.2rc1 (win64 - Windows 10.0 (19045.2))

CPU model: 12th Gen Intel(R) Core(TM) i7-12700KF, instruction set [SSE2|AVX|AVX2]
Thread count: 12 physical cores, 20 logical processors, using up to 1 threads

Non-default parameters:
TimeLimit  268.141256
MIPGap  0
MIPGapAbs  0
LogToConsole  0
Threads  1

Optimize a model with 11923 rows, 3380 columns and 67410 nonzeros (Min)
Model fingerprint: 0xb77b0e78
Model has 21 linear objective coefficients
Variable types: 1687 continuous, 1693 integer (1493 binary)
Coefficient statistics:
  Matrix range     [2e-02, 2e+04]
  Objective range  [2e-02, 1e+00]
  Bounds range     [4e-01, 7e+02]
  RHS range        [4e-01, 5e+04]

Presolve removed 1699 rows and 64 columns
Presolve time: 0.23s
Presolved: 10224 rows, 3316 columns, 74573 nonzeros
Variable types: 1641 continuous, 1675 integer (1496 binary)

Root relaxation: objective 1.017139e+00, 3504 iterations, 0.19 seconds (0.48 work units)

    Nodes    |    Current Node    |     Objective Bounds      |     Work
 Expl Unexpl |  Obj  Depth IntInf | Incumbent    BestBd   Gap | It/Node Time

     0     0    1.01714    0  218          -    1.01714      -     -    0s
     0     0    1.05219    0  228          -    1.05219      -     -    0s
     0     0    1.07880    0  306          -    1.07880      -     -    1s
     0     0    1.07925    0  293          -    1.07925      -     -    1s
     0     0    1.08831    0  299          -    1.08831      -     -    1s
     0     0    1.08866    0  291          -    1.08866      -     -    2s
     0     0    1.09017    0  318          -    1.09017      -     -    2s
     0     0    1.09045    0  319          -    1.09045      -     -    3s
     0     0    1.09381    0  339          -    1.09381      -     -    3s
     0     0    1.09431    0  338          -    1.09431      -     -    3s
     0     0    1.09496    0  351          -    1.09496      -     -    4s
     0     0    1.09634    0  353          -    1.09634      -     -    4s
     0     0    1.09777    0  300          -    1.09777      -     -    5s
     0     0    1.09804    0  348          -    1.09804      -     -    5s
     0     0    1.09831    0  335          -    1.09831      -     -    5s
     0     0    1.09838    0  344          -    1.09838      -     -    5s
     0     0    1.09859    0  369          -    1.09859      -     -    6s
     0     0    1.09866    0  365          -    1.09866      -     -    6s
     0     0    1.09927    0  318          -    1.09927      -     -    7s
     0     0    1.09957    0  362          -    1.09957      -     -    7s
     0     0    1.09977    0  386          -    1.09977      -     -    8s
     0     0    1.09986    0  369          -    1.09986      -     -    8s
     0     0    1.10036    0  375          -    1.10036      -     -    8s
     0     0    1.10045    0  371          -    1.10045      -     -    9s
     0     0    1.10053    0  363          -    1.10053      -     -    9s
     0     0    1.10059    0  361          -    1.10059      -     -    9s
     0     0    1.10085    0  336          -    1.10085      -     -   10s
     0     0    1.10089    0  346          -    1.10089      -     -   10s
     0     0    1.10118    0  359          -    1.10118      -     -   11s
     0     0    1.10126    0  388          -    1.10126      -     -   11s
     0     0    1.10137    0  385          -    1.10137      -     -   12s
     0     0    1.10142    0  379          -    1.10142      -     -   12s
     0     0    1.10149    0  401          -    1.10149      -     -   13s
     0     0    1.10151    0  391          -    1.10151      -     -   13s
     0     0    1.10162    0  387          -    1.10162      -     -   14s
     0     0    1.10166    0  376          -    1.10166      -     -   14s
     0     0    1.10174    0  411          -    1.10174      -     -   15s
     0     0    1.10175    0  394          -    1.10175      -     -   15s
     0     0    1.10180    0  402          -    1.10180      -     -   15s
     0     0    1.10183    0  394          -    1.10183      -     -   15s
     0     0    1.10184    0  376          -    1.10184      -     -   16s
     0     0    1.10184    0  376          -    1.10184      -     -   16s
     0     0    1.10184    0  365          -    1.10184      -     -   16s
     0     2    1.10184    0  364          -    1.10184      -     -   17s
     3     5    1.10735    2  276          -    1.10184      -   811   20s
    24    24    1.11366   16  267          -    1.10184      -  1164   25s
    39    38    1.11762   27  211          -    1.10184      -   923   30s
   225   216 infeasible    6               -    1.10241      -   321   35s
   341   331    1.12834  118  213          -    1.10241      -   265   40s
   500   474    1.13058  138  254          -    1.10276      -   215   45s
   542   497    1.12507   20  330          -    1.10374      -   216   50s
   546   500    1.12744   51  316          -    1.10374      -   215   55s
   550   502    1.12802  163  360          -    1.10374      -   213   60s
   554   505    1.13078  107  376          -    1.10520      -   212   66s
   557   507    1.13926  194  390          -    1.10546      -   210   70s
   561   510    1.13224  146  367          -    1.10597      -   209   75s
   565   512    1.12548   55  428          -    1.10630      -   207   80s
   570   516    1.10704   10  377          -    1.10656      -   206   86s
   577   520    1.12522   45  412          -    1.10658      -   203   90s
   583   526    1.11331   17  316          -    1.10666      -   328   96s
   587   529    1.11592   19  312          -    1.10987      -   339  100s
   593   533    1.11606   22  291          -    1.10987      -   346  105s
   600   536    1.14441   25  192          -    1.10987      -   351  110s
   635   543    1.12119   19  238          -    1.10993      -   378  115s
   669   550    1.12409   36  206          -    1.10993      -   386  120s
   705   548    1.14086   26  196          -    1.11299      -   397  128s
   716   549    1.14236   32  155          -    1.11299      -   394  130s
   746   553    1.13272   26  227          -    1.11596      -   419  135s
   810   548    1.11604   23  304          -    1.11604      -   413  140s
   848   555    1.14959   42  172          -    1.11761      -   426  145s
   896   552    1.13887   35  236          -    1.11830      -   436  150s
   950   578    1.12255   19  224          -    1.11830      -   419  157s
   968   586    1.13709   29  227          -    1.11830      -   426  160s
  1061   644    1.15060  110  156          -    1.11830      -   404  165s
  1141   673 infeasible   30               -    1.11902      -   394  170s
  1179   683    1.12377   31  254          -    1.11994      -   394  175s
  1223   692    1.15345   41  192          -    1.12055      -   405  180s
  1282   679    1.13702   22  272          -    1.12119      -   413  185s
  1312   685    1.13651   30  232          -    1.12131      -   422  193s
  1313   686    1.14167   31  221          -    1.12131      -   422  195s
  1375   703    1.14483   49  189          -    1.12144      -   417  200s
  1432   729    1.14262   47  163          -    1.12149      -   416  205s
  1487   734    1.15429   28  221          -    1.12168      -   423  210s
  1530   743    1.12493   22  291          -    1.12187      -   423  215s
  1583   752    1.15276   34  163          -    1.12244      -   424  220s
  1652   772    1.14658   50  134          -    1.12310      -   420  225s
  1727   786    1.13536   25  275          -    1.12448      -   416  230s
  1771   791    1.13965   31  209          -    1.12448      -   419  235s
  1839   795    1.13071   25  222          -    1.12464      -   420  240s
  1894   809    1.13832   29  270          -    1.12466      -   422  245s
  1932   805    1.13588   34  250          -    1.12569      -   427  250s
  1969   813    1.15098   35  205          -    1.12576      -   429  255s
  2015   808    1.15163   33  248          -    1.12657      -   431  260s
  2076   792    1.13732   25  256          -    1.12675      -   433  265s

Cutting planes:
  Learned: 13
  Cover: 39
  Implied bound: 91
  Projected implied bound: 17
  Clique: 17
  MIR: 113
  StrongCG: 5
  Flow cover: 200
  GUB cover: 6
  Network: 22
  RLT: 5
  Relax-and-lift: 20

Explored 2109 nodes (976533 simplex iterations) in 268.14 seconds (518.47 work units)
Thread count was 1 (of 20 available processors)

Solution count 0

Time limit reached
Best objective -, best bound 1.126805522187e+00, gap -

User-callback calls 65383, time in user-callback 0.01 sec
